N = 113;
M = 472;
Edge_Start = [1, 1, 2, 2, 3, 4, 5, 6, 6, 6, 6, 7, 7, 8, 9, 10, 11, 12, 12, 12, 13, 13, 13, 13, 14, 14, 15, 15, 15, 16, 16, 16, 17, 17, 18, 18, 18, 18, 19, 20, 21, 21, 21, 22, 22, 23, 24, 24, 24, 24, 25, 25, 26, 26, 27, 27, 28, 28, 28, 29, 30, 30, 30, 31, 31, 32, 32, 33, 33, 34, 34, 34, 35, 35, 36, 36, 37, 37, 38, 39, 39, 40, 40, 41, 41, 41, 42, 43, 43, 44, 45, 45, 46, 46, 47, 47, 48, 48, 49, 49, 50, 50, 51, 51, 52, 53, 53, 54, 54, 55, 56, 57, 57, 58, 58, 58, 59, 59, 60, 60, 61, 61, 62, 62, 63, 63, 63, 64, 64, 65, 65, 66, 66, 66, 67, 67, 68, 68, 69, 69, 70, 70, 71, 71, 71, 72, 72, 73, 74, 74, 74, 75, 75, 76, 76, 77, 77, 77, 78, 79, 79, 79, 80, 80, 80, 81, 81, 81, 82, 82, 82, 82, 83, 83, 83, 84, 84, 84, 85, 86, 86, 87, 88, 88, 89, 89, 89, 90, 91, 91, 91, 92, 92, 92, 93, 94, 94, 95, 96, 96, 97, 97, 97, 98, 98, 99, 99, 100, 100, 101, 101, 101, 102, 102, 102, 103, 103, 104, 104, 105, 105, 106, 106, 107, 107, 108, 109, 109, 110, 110, 110, 110, 111, 111, 112, 113, 12, 64, 26, 98, 42, 51, 70, 23, 74, 97, 100, 8, 60, 7, 76, 33, 99, 1, 22, 28, 18, 71, 74, 94, 17, 53, 66, 81, 84, 21, 41, 45, 14, 107, 13, 77, 83, 102, 111, 95, 16, 22, 64, 12, 66, 6, 57, 77, 80, 110, 30, 69, 3, 27, 26, 98, 12, 80, 81, 30, 10, 25, 31, 29, 56, 84, 89, 4, 51, 35, 57, 110, 34, 112, 44, 95, 73, 96, 31, 11, 40, 11, 52, 16, 32, 71, 43, 49, 88, 65, 39, 76, 38, 61, 9, 86, 49, 88, 48, 50, 46, 51, 21, 45, 59, 54, 103, 17, 53, 29, 55, 24, 58, 35, 57, 108, 41, 67, 62, 106, 38, 56, 63, 91, 8, 60, 93, 1, 21, 47, 59, 15, 16, 22, 37, 44, 20, 87, 4, 10, 5, 34, 13, 41, 67, 19, 90, 72, 6, 13, 97, 68, 87, 48, 50, 18, 24, 85, 82, 81, 82, 84, 24, 28, 82, 15, 28, 79, 78, 79, 80, 83, 18, 82, 89, 15, 32, 79, 77, 9, 76, 36, 3, 27, 32, 71, 83, 92, 63, 75, 92, 23, 91, 94, 63, 13, 92, 44, 19, 73, 6, 74, 101, 2, 104, 52, 59, 6, 105, 97, 102, 105, 18, 101, 109, 2, 104, 54, 103, 100, 101, 14, 107, 62, 106, 58, 102, 110, 24, 34, 109, 113, 90, 94, 5, 110];
Edge_End = [12, 64, 26, 98, 42, 51, 70, 23, 74, 97, 100, 8, 60, 7, 76, 33, 99, 1, 22, 28, 18, 71, 74, 94, 17, 53, 66, 81, 84, 21, 41, 45, 14, 107, 13, 77, 83, 102, 111, 95, 16, 22, 64, 12, 66, 6, 57, 77, 80, 110, 30, 69, 3, 27, 26, 98, 12, 80, 81, 30, 10, 25, 31, 29, 56, 84, 89, 4, 51, 35, 57, 110, 34, 112, 44, 95, 73, 96, 31, 11, 40, 11, 52, 16, 32, 71, 43, 49, 88, 65, 39, 76, 38, 61, 9, 86, 49, 88, 48, 50, 46, 51, 21, 45, 59, 54, 103, 17, 53, 29, 55, 24, 58, 35, 57, 108, 41, 67, 62, 106, 38, 56, 63, 91, 8, 60, 93, 1, 21, 47, 59, 15, 16, 22, 37, 44, 20, 87, 4, 10, 5, 34, 13, 41, 67, 19, 90, 72, 6, 13, 97, 68, 87, 48, 50, 18, 24, 85, 82, 81, 82, 84, 24, 28, 82, 15, 28, 79, 78, 79, 80, 83, 18, 82, 89, 15, 32, 79, 77, 9, 76, 36, 3, 27, 32, 71, 83, 92, 63, 75, 92, 23, 91, 94, 63, 13, 92, 44, 19, 73, 6, 74, 101, 2, 104, 52, 59, 6, 105, 97, 102, 105, 18, 101, 109, 2, 104, 54, 103, 100, 101, 14, 107, 62, 106, 58, 102, 110, 24, 34, 109, 113, 90, 94, 5, 110, 1, 1, 2, 2, 3, 4, 5, 6, 6, 6, 6, 7, 7, 8, 9, 10, 11, 12, 12, 12, 13, 13, 13, 13, 14, 14, 15, 15, 15, 16, 16, 16, 17, 17, 18, 18, 18, 18, 19, 20, 21, 21, 21, 22, 22, 23, 24, 24, 24, 24, 25, 25, 26, 26, 27, 27, 28, 28, 28, 29, 30, 30, 30, 31, 31, 32, 32, 33, 33, 34, 34, 34, 35, 35, 36, 36, 37, 37, 38, 39, 39, 40, 40, 41, 41, 41, 42, 43, 43, 44, 45, 45, 46, 46, 47, 47, 48, 48, 49, 49, 50, 50, 51, 51, 52, 53, 53, 54, 54, 55, 56, 57, 57, 58, 58, 58, 59, 59, 60, 60, 61, 61, 62, 62, 63, 63, 63, 64, 64, 65, 65, 66, 66, 66, 67, 67, 68, 68, 69, 69, 70, 70, 71, 71, 71, 72, 72, 73, 74, 74, 74, 75, 75, 76, 76, 77, 77, 77, 78, 79, 79, 79, 80, 80, 80, 81, 81, 81, 82, 82, 82, 82, 83, 83, 83, 84, 84, 84, 85, 86, 86, 87, 88, 88, 89, 89, 89, 90, 91, 91, 91, 92, 92, 92, 93, 94, 94, 95, 96, 96, 97, 97, 97, 98, 98, 99, 99, 100, 100, 101, 101, 101, 102, 102, 102, 103, 103, 104, 104, 105, 105, 106, 106, 107, 107, 108, 109, 109, 110, 110, 110, 110, 111, 111, 112, 113];
L = [1, 1, 1, 1, 1, 1, 1, 1, 1, 1, 1, 1, 1, 1, 1, 1, 1, 1, 1, 1, 1, 1, 1, 1, 1, 1, 1, 1, 1, 1, 1, 1, 1, 1, 1, 1, 1, 1, 1, 1, 1, 1, 1, 1, 1, 1, 1, 1, 1, 1, 1, 1, 1, 1, 1, 1, 1, 1, 1, 1, 1, 1, 1, 1, 1, 1, 1, 1, 1, 1, 1, 1, 1, 1, 1, 1, 1, 1, 1, 1, 1, 1, 1, 1, 1, 1, 1, 1, 1, 1, 1, 1, 1, 1, 1, 1, 1, 1, 1, 1, 1, 1, 1, 1, 1, 1, 1, 1, 1, 1, 1, 1, 1, 1, 1, 1, 1, 1, 1, 1, 1, 1, 1, 1, 1, 1, 1, 1, 1, 1, 1, 1, 1, 1, 1, 1, 1, 1, 1, 1, 1, 1, 1, 1, 1, 1, 1, 1, 1, 1, 1, 1, 1, 1, 1, 1, 1, 1, 1, 1, 1, 1, 1, 1, 1, 1, 1, 1, 1, 1, 1, 1, 1, 1, 1, 1, 1, 1, 1, 1, 1, 1, 1, 1, 1, 1, 1, 1, 1, 1, 1, 1, 1, 1, 1, 1, 1, 1, 1, 1, 1, 1, 1, 1, 1, 1, 1, 1, 1, 1, 1, 1, 1, 1, 1, 1, 1, 1, 1, 1, 1, 1, 1, 1, 1, 1, 1, 1, 1, 1, 1, 1, 1, 1, 1, 1, 1, 1, 1, 1, 1, 1, 1, 1, 1, 1, 1, 1, 1, 1, 1, 1, 1, 1, 1, 1, 1, 1, 1, 1, 1, 1, 1, 1, 1, 1, 1, 1, 1, 1, 1, 1, 1, 1, 1, 1, 1, 1, 1, 1, 1, 1, 1, 1, 1, 1, 1, 1, 1, 1, 1, 1, 1, 1, 1, 1, 1, 1, 1, 1, 1, 1, 1, 1, 1, 1, 1, 1, 1, 1, 1, 1, 1, 1, 1, 1, 1, 1, 1, 1, 1, 1, 1, 1, 1, 1, 1, 1, 1, 1, 1, 1, 1, 1, 1, 1, 1, 1, 1, 1, 1, 1, 1, 1, 1, 1, 1, 1, 1, 1, 1, 1, 1, 1, 1, 1, 1, 1, 1, 1, 1, 1, 1, 1, 1, 1, 1, 1, 1, 1, 1, 1, 1, 1, 1, 1, 1, 1, 1, 1, 1, 1, 1, 1, 1, 1, 1, 1, 1, 1, 1, 1, 1, 1, 1, 1, 1, 1, 1, 1, 1, 1, 1, 1, 1, 1, 1, 1, 1, 1, 1, 1, 1, 1, 1, 1, 1, 1, 1, 1, 1, 1, 1, 1, 1, 1, 1, 1, 1, 1, 1, 1, 1, 1, 1, 1, 1, 1, 1, 1, 1, 1, 1, 1, 1, 1, 1, 1, 1, 1, 1, 1, 1, 1, 1, 1, 1, 1, 1, 1, 1, 1, 1, 1, 1, 1, 1, 1, 1, 1, 1, 1];
T = [1, 1, 1, 1, 1, 1, 1, 1, 1, 1, 1, 1, 1, 1, 1, 1, 1, 1, 1, 1, 1, 1, 1, 1, 1, 1, 1, 1, 1, 1, 1, 1, 1, 1, 1, 1, 1, 1, 1, 1, 1, 1, 1, 1, 1, 1, 1, 1, 1, 1, 1, 1, 1, 1, 1, 1, 1, 1, 1, 1, 1, 1, 1, 1, 1, 1, 1, 1, 1, 1, 1, 1, 1, 1, 1, 1, 1, 1, 1, 1, 1, 1, 1, 1, 1, 1, 1, 1, 1, 1, 1, 1, 1, 1, 1, 1, 1, 1, 1, 1, 1, 1, 1, 1, 1, 1, 1, 1, 1, 1, 1, 1, 1, 1, 1, 1, 1, 1, 1, 1, 1, 1, 1, 1, 1, 1, 1, 1, 1, 1, 1, 1, 1, 1, 1, 1, 1, 1, 1, 1, 1, 1, 1, 1, 1, 1, 1, 1, 1, 1, 1, 1, 1, 1, 1, 1, 1, 1, 1, 1, 1, 1, 1, 1, 1, 1, 1, 1, 1, 1, 1, 1, 1, 1, 1, 1, 1, 1, 1, 1, 1, 1, 1, 1, 1, 1, 1, 1, 1, 1, 1, 1, 1, 1, 1, 1, 1, 1, 1, 1, 1, 1, 1, 1, 1, 1, 1, 1, 1, 1, 1, 1, 1, 1, 1, 1, 1, 1, 1, 1, 1, 1, 1, 1, 1, 1, 1, 1, 1, 1, 1, 1, 1, 1, 1, 1, 1, 1, 1, 1, 1, 1, 1, 1, 1, 1, 1, 1, 1, 1, 1, 1, 1, 1, 1, 1, 1, 1, 1, 1, 1, 1, 1, 1, 1, 1, 1, 1, 1, 1, 1, 1, 1, 1, 1, 1, 1, 1, 1, 1, 1, 1, 1, 1, 1, 1, 1, 1, 1, 1, 1, 1, 1, 1, 1, 1, 1, 1, 1, 1, 1, 1, 1, 1, 1, 1, 1, 1, 1, 1, 1, 1, 1, 1, 1, 1, 1, 1, 1, 1, 1, 1, 1, 1, 1, 1, 1, 1, 1, 1, 1, 1, 1, 1, 1, 1, 1, 1, 1, 1, 1, 1, 1, 1, 1, 1, 1, 1, 1, 1, 1, 1, 1, 1, 1, 1, 1, 1, 1, 1, 1, 1, 1, 1, 1, 1, 1, 1, 1, 1, 1, 1, 1, 1, 1, 1, 1, 1, 1, 1, 1, 1, 1, 1, 1, 1, 1, 1, 1, 1, 1, 1, 1, 1, 1, 1, 1, 1, 1, 1, 1, 1, 1, 1, 1, 1, 1, 1, 1, 1, 1, 1, 1, 1, 1, 1, 1, 1, 1, 1, 1, 1, 1, 1, 1, 1, 1, 1, 1, 1, 1, 1, 1, 1, 1, 1, 1, 1, 1, 1, 1, 1, 1, 1, 1, 1, 1, 1, 1, 1, 1, 1, 1, 1, 1, 1, 1, 1, 1, 1, 1, 1, 1, 1, 1, 1, 1, 1, 1, 1, 1, 1];
Lower_Bound = [5, 6, 4, 10, 13, 9, 12, 11, 12, 7, 5, 5, 7, 9, 6, 4, 7, 8, 10, 13, 5, 4, 13, 11, 7, 4, 4, 6, 6, 6, 4, 6, 8, 10, 11, 13, 9, 3, 4, 5, 6, 5, 5, 8, 3, 2, 10, 1, 2, 1, 3, 7, 7, 7, 6, 4, 10, 10, 7, 11, 3, 9, 10, 4, 9, 5, 7, 14, 9, 14, 6, 10, 10, 9, 11, 0, 9, 10, 8, 7, 8, 9, 8, 7, 10, 12, 12, 3, 7, 11, 10, 10, 11, 10, 14, 9, 9, 6, 7, 13, 11, 9, 6, 5, 11, 9, 8, 12, 11, 10, 11, 14, 10];
Upper_Bound = [9, 11, 7, 13, 22, 13, 13, 13, 23, 13, 8, 6, 18, 12, 8, 7, 8, 21, 15, 18, 11, 5, 14, 13, 10, 8, 9, 10, 12, 7, 5, 9, 9, 13, 12, 19, 23, 6, 6, 16, 7, 7, 9, 10, 4, 9, 12, 6, 4, 3, 6, 14, 11, 9, 7, 11, 12, 21, 14, 24, 4, 11, 12, 9, 10, 7, 18, 21, 13, 15, 8, 15, 17, 14, 15, 4, 13, 18, 14, 10, 9, 14, 11, 14, 12, 13, 13, 5, 15, 13, 12, 17, 13, 16, 20, 11, 11, 10, 16, 17, 21, 19, 8, 6, 21, 12, 17, 14, 23, 20, 13, 18, 13];
Start = 76;
End = 35;
Time = 12;
